20
587 233 220
60 44 36
76 42 40
65 49 48
109 92 51
93 42 31
83 64 59
96 90 55
52 42 31
98 72 61
118 98 57
48 31 25
75 67 50
120 66 32
91 76 65
102 71 49
93 89 59
76 48 23
63 53 23
83 59 27
85 69 53
thpack7_68